Comps = {frontend0, frontend1, backend0, backend1, database0, database1};
mustComps = {frontend0, frontend1};
Flavs = {tiny, medium, large};
Nodes = {n1, n2, n3};
CRes = {CPU, RAM, storage, bwIn, bwOut};
NRes = {ssl, fwall, encr, avail, latency};
Flav = [{medium, large}, {medium, large}, {tiny, medium, large}, {tiny, medium, large}, {large}, {large}];
Uses = array2d(CompFlavs, CompFlavs, [
	0,0,0,0,1,0,0,0,0,0,0,0,
	0,0,0,0,1,0,0,0,0,0,0,0,
	0,0,0,0,1,0,0,0,0,0,0,0,
	0,0,0,0,1,0,0,0,0,0,0,0,
	0,0,0,0,0,0,0,0,0,0,0,0,
	0,0,0,0,0,0,1,0,0,0,0,0,
	0,0,0,0,0,0,1,0,0,0,0,0,
	0,0,0,0,0,0,0,0,0,0,0,0,
	0,0,0,0,0,0,0,0,0,1,0,0,
	0,0,0,0,0,0,0,0,0,1,0,0,
	0,0,0,0,0,0,0,0,0,0,0,0,
	0,0,0,0,0,0,0,0,0,0,0,0,
]);
mayUse = array2d(Comps, CompFlavs, [
	0,0,0,0,0,0,0,0,0,0,0,0,
	0,0,0,0,0,0,0,0,0,0,0,0,
	1,1,1,1,0,1,1,0,0,0,0,0,
	0,0,0,0,0,0,0,0,1,1,0,0,
	0,0,0,0,0,0,0,0,0,0,0,0,
	0,0,0,0,0,0,0,0,0,0,0,0,
]);
MIN_RBOUNDS = 0;
MAX_RBOUNDS = 1000000;

worstBounds = [0, 0, 0, 0, 0, 0, 0, 0, 0, MAX_RBOUNDS];
bestBounds = [MAX_RBOUNDS - i | i in worstBounds];

comReq = array2d(CompFlavs, Res, [
  4, 215, 448, 274, 629, 1, 1, 0, 95, MAX_RBOUNDS,
  2, 385, 437, 417, 688, 0, 0, 0, 95, MAX_RBOUNDS,
  2, 434, 407, 637, 375, 0, 1, 1, 96, MAX_RBOUNDS,
  2, 381, 435, 710, 383, 1, 1, 1, 97, MAX_RBOUNDS,
  2, 396, 245, 820, 960, 1, 1, 0, 95, MAX_RBOUNDS,
  2, 343, 355, 244, 478, 1, 1, 0, 96, MAX_RBOUNDS,
  2, 365, 454, 762, 765, 1, 0, 1, 96, MAX_RBOUNDS,
  2, 242, 283, 674, 788, 1, 0, 0, 96, MAX_RBOUNDS,
  2, 417, 490, 614, 397, 0, 1, 1, 97, MAX_RBOUNDS,
  4, 485, 217, 718, 430, 1, 1, 1, 95, MAX_RBOUNDS,
  2, 393, 357, 681, 860, 1, 0, 1, 97, MAX_RBOUNDS,
  2, 382, 487, 298, 688, 1, 1, 0, 95, MAX_RBOUNDS,
]);

nodeCap = array2d(Nodes0, Res, [bestBounds[r] | r in Res] ++ [
  16, 112710, 324980, 17430, 13548, 1, 1, 1, 98, 0,
  32, 40237, 882455, 12623, 13555, 1, 1, 1, 98, 0,
  32, 64868, 352577, 16765, 14208, 1, 1, 1, 99, 0,
]);

cost = array2d(Nodes0, Res, [
  0, 0, 0, 0, 0, 0, 0, 0, 0, 0, % no node
  10, 7, 23, 0, 0, 0, 0, 0, 0, 0,
  18, 9, 16, 0, 0, 0, 0, 0, 0, 0,
  10, 9, 23, 0, 0, 0, 0, 0, 0, 0,
]);

carb = array2d(Nodes0, Res, [
  0, 0, 0, 0, 0, 0, 0, 0, 0, 0, % no node
  5, 48, 11, 0, 0, 0, 0, 0, 0, 0,
  23, 34, 39, 0, 0, 0, 0, 0, 0, 0,
  17, 39, 18, 0, 0, 0, 0, 0, 0, 0,
]);

costBudget = 32543;
carbBudget = 41569;

depReq = array4d(Comps, Flavs, Comps, Res, [
  if c1 = frontend0 /\ c2 = backend0 /\ r = N(avail) then
    95
  elseif c1 = frontend0 /\ c2 = backend1 /\ r = N(avail) then
    95
  elseif c1 = frontend1 /\ c2 = backend1 /\ r = N(avail) then
    97
  else
    worstBounds[r]
  endif | c1 in Comps, i in Flavs, c2 in Comps, r in Res]);

linkCap = array3d(Nodes0, Nodes0, Res, [
  if ni = 0 \/ nj = 0 then
    bestBounds[r]
  elseif ni = nj /\ r = N(avail) then
    nodeCap[ni,r]
  elseif {ni, nj} = {n1, n3} /\ r = N(avail) then
    99
  elseif {ni, nj} = {n1, n2} /\ r = N(avail) then
    98
  elseif {ni, nj} = {n2, n3} /\ r = N(avail) then
    98
  else
    worstBounds[r]
  endif | ni in Nodes0, nj in Nodes0, r in Res]);

imp = array2d(Comps, Flavs, [
  5, 6, 8,
  1, 3, 4,
  5, 7, 9,
  3, 6, 9,
  3, 5, 7,
  2, 3, 6,
]);

